T=4;
V=9;
graph=[|true,true,false,true,false,false,false,false,false
|true,true,true,false,true,false,false,false,false
|false,true,true,false,false,true,false,false,false
|true,false,false,true,true,false,true,false,false
|false,true,false,true,true,true,false,true,false
|false,false,true,false,true,true,false,false,true
|false,false,false,true,false,false,true,true,false
|false,false,false,false,true,false,true,true,true
|false,false,false,false,false,true,false,true,true|];
A=8;
start=[7,3,1,6,4,9,2,8];
end=[1,2,3,4,5,6,7,8];
